p edge 360 1080
e 1 79
e 1 176
e 1 247
e 2 177
e 2 300
e 2 331
e 3 83
e 3 145
e 3 150
e 4 97
e 4 149
e 4 190
e 5 64
e 5 108
e 5 207
e 6 57
e 6 88
e 6 195
e 7 159
e 7 222
e 7 346
e 8 121
e 8 264
e 8 281
e 9 163
e 9 227
e 9 276
e 10 29
e 10 68
e 10 230
e 11 143
e 11 238
e 11 262
e 12 89
e 12 178
e 12 291
e 13 94
e 13 104
e 13 126
e 14 199
e 14 213
e 14 332
e 15 115
e 15 149
e 15 217
e 16 35
e 16 89
e 16 246
e 17 136
e 17 290
e 17 292
e 18 76
e 18 206
e 18 312
e 19 35
e 19 36
e 19 76
e 20 100
e 20 110
e 20 282
e 21 156
e 21 331
e 21 357
e 22 3
e 22 117
e 22 192
e 23 186
e 23 220
e 23 252
e 24 102
e 24 172
e 24 184
e 25 54
e 25 113
e 25 285
e 26 2
e 26 67
e 26 188
e 27 67
e 27 153
e 27 292
e 28 5
e 28 179
e 28 193
e 29 89
e 29 267
e 29 294
e 30 55
e 30 263
e 30 342
e 31 75
e 31 95
e 31 352
e 32 237
e 32 300
e 32 321
e 33 39
e 33 87
e 33 155
e 34 33
e 34 188
e 34 230
e 35 159
e 35 211
e 35 305
e 36 24
e 36 61
e 36 275
e 37 12
e 37 186
e 37 228
e 38 116
e 38 243
e 38 338
e 39 33
e 39 77
e 39 263
e 40 178
e 40 188
e 40 216
e 41 161
e 41 217
e 41 317
e 42 24
e 42 247
e 42 248
e 43 19
e 43 123
e 43 148
e 44 54
e 44 88
e 44 207
e 45 84
e 45 165
e 45 222
e 46 103
e 46 158
e 46 340
e 47 27
e 47 85
e 47 173
e 48 234
e 48 239
e 48 266
e 49 93
e 49 211
e 49 330
e 50 109
e 50 155
e 50 261
e 51 123
e 51 132
e 51 336
e 52 258
e 52 302
e 52 308
e 53 15
e 53 59
e 53 151
e 54 149
e 54 191
e 54 308
e 55 46
e 55 134
e 55 184
e 56 6
e 56 140
e 56 336
e 57 95
e 57 235
e 57 263
e 58 35
e 58 47
e 58 282
e 59 28
e 59 122
e 59 217
e 60 84
e 60 208
e 60 300
e 61 187
e 61 216
e 61 224
e 62 29
e 62 300
e 62 330
e 63 173
e 63 235
e 63 359
e 64 107
e 64 179
e 64 209
e 65 200
e 65 251
e 65 287
e 66 236
e 66 278
e 66 322
e 67 177
e 67 231
e 67 290
e 68 142
e 68 304
e 68 353
e 69 123
e 69 199
e 69 204
e 70 22
e 70 92
e 70 232
e 71 98
e 71 121
e 71 299
e 72 23
e 72 34
e 72 63
e 73 33
e 73 68
e 73 351
e 74 122
e 74 177
e 74 212
e 75 24
e 75 62
e 75 121
e 76 61
e 76 277
e 76 329
e 77 82
e 77 158
e 77 262
e 78 81
e 78 216
e 78 263
e 79 137
e 79 137
e 79 266
e 80 15
e 80 161
e 80 208
e 81 46
e 81 64
e 81 268
e 82 45
e 82 169
e 82 353
e 83 81
e 83 182
e 83 316
e 84 155
e 84 168
e 84 272
e 85 25
e 85 131
e 85 326
e 86 48
e 86 146
e 86 213
e 87 10
e 87 81
e 87 302
e 88 40
e 88 197
e 88 334
e 89 21
e 89 88
e 89 104
e 90 25
e 90 314
e 90 327
e 91 111
e 91 250
e 91 260
e 92 65
e 92 230
e 92 270
e 93 161
e 93 195
e 93 317
e 94 145
e 94 297
e 94 307
e 95 144
e 95 177
e 95 301
e 96 158
e 96 316
e 96 317
e 97 48
e 97 151
e 97 185
e 98 6
e 98 151
e 98 272
e 99 126
e 99 190
e 99 298
e 100 78
e 100 263
e 100 321
e 101 48
e 101 86
e 101 346
e 102 262
e 102 292
e 102 298
e 103 107
e 103 319
e 103 344
e 104 47
e 104 190
e 104 299
e 105 74
e 105 143
e 105 199
e 106 29
e 106 333
e 106 333
e 107 12
e 107 93
e 107 317
e 108 93
e 108 133
e 108 201
e 109 131
e 109 295
e 109 302
e 110 158
e 110 241
e 110 317
e 111 92
e 111 92
e 111 114
e 112 13
e 112 114
e 112 291
e 113 225
e 113 251
e 113 257
e 114 180
e 114 195
e 114 304
e 115 122
e 115 136
e 115 153
e 116 52
e 116 72
e 116 152
e 117 37
e 117 349
e 117 354
e 118 15
e 118 168
e 118 262
e 119 51
e 119 236
e 119 308
e 120 34
e 120 193
e 120 320
e 121 82
e 121 209
e 121 292
e 122 77
e 122 298
e 122 301
e 123 80
e 123 277
e 123 297
e 124 50
e 124 110
e 124 271
e 125 83
e 125 201
e 125 207
e 126 46
e 126 219
e 126 298
e 127 124
e 127 192
e 127 311
e 128 4
e 128 32
e 128 88
e 129 73
e 129 146
e 129 335
e 130 97
e 130 282
e 130 360
e 131 247
e 131 333
e 131 342
e 132 168
e 132 250
e 132 340
e 133 100
e 133 194
e 133 301
e 134 133
e 134 244
e 134 264
e 135 121
e 135 149
e 135 224
e 136 76
e 136 322
e 136 329
e 137 24
e 137 27
e 137 254
e 138 195
e 138 198
e 138 269
e 139 190
e 139 218
e 139 300
e 140 196
e 140 254
e 140 304
e 141 36
e 141 114
e 141 208
e 142 119
e 142 227
e 142 300
e 143 9
e 143 296
e 143 331
e 144 8
e 144 150
e 144 187
e 145 108
e 145 177
e 145 327
e 146 30
e 146 104
e 146 314
e 147 143
e 147 188
e 147 313
e 148 18
e 148 109
e 148 279
e 149 182
e 149 215
e 149 315
e 150 75
e 150 133
e 150 359
e 151 45
e 151 80
e 151 341
e 152 23
e 152 43
e 152 304
e 153 104
e 153 176
e 153 312
e 154 43
e 154 138
e 154 337
e 155 13
e 155 148
e 155 314
e 156 49
e 156 167
e 156 169
e 157 22
e 157 67
e 157 340
e 158 2
e 158 43
e 158 147
e 159 182
e 159 229
e 159 333
e 160 39
e 160 241
e 160 358
e 161 184
e 161 216
e 161 313
e 162 27
e 162 163
e 162 265
e 163 177
e 163 274
e 163 358
e 164 12
e 164 154
e 164 312
e 165 170
e 165 286
e 165 358
e 166 51
e 166 259
e 166 275
e 167 5
e 167 289
e 167 301
e 168 108
e 168 218
e 168 285
e 169 124
e 169 227
e 169 348
e 170 23
e 170 137
e 170 255
e 171 169
e 171 180
e 171 191
e 172 57
e 172 118
e 172 302
e 173 42
e 173 75
e 173 260
e 174 223
e 174 304
e 174 351
e 175 48
e 175 103
e 175 183
e 176 92
e 176 232
e 176 287
e 177 156
e 177 318
e 177 350
e 178 8
e 178 187
e 178 205
e 179 161
e 179 166
e 179 335
e 180 132
e 180 139
e 180 163
e 181 37
e 181 86
e 181 267
e 182 30
e 182 309
e 182 322
e 183 38
e 183 145
e 183 209
e 184 52
e 184 70
e 184 333
e 185 265
e 185 324
e 185 356
e 186 109
e 186 154
e 186 316
e 187 26
e 187 37
e 187 164
e 188 67
e 188 306
e 188 328
e 189 105
e 189 111
e 189 168
e 190 1
e 190 30
e 190 289
e 191 11
e 191 20
e 191 271
e 192 26
e 192 228
e 192 261
e 193 230
e 193 241
e 193 268
e 194 46
e 194 55
e 194 106
e 195 65
e 195 68
e 195 140
e 196 25
e 196 80
e 196 283
e 197 261
e 197 333
e 197 355
e 198 64
e 198 181
e 198 219
e 199 142
e 199 288
e 199 298
e 200 74
e 200 128
e 200 153
e 201 123
e 201 133
e 201 338
e 202 148
e 202 262
e 202 350
e 203 41
e 203 44
e 203 207
e 204 71
e 204 86
e 204 152
e 205 14
e 205 14
e 205 155
e 206 156
e 206 181
e 206 293
e 207 82
e 207 243
e 207 265
e 208 17
e 208 24
e 208 24
e 209 78
e 209 157
e 209 221
e 210 62
e 210 161
e 210 223
e 211 13
e 211 142
e 211 193
e 212 57
e 212 62
e 212 114
e 213 273
e 213 275
e 213 305
e 214 159
e 214 166
e 214 211
e 215 74
e 215 191
e 215 259
e 216 129
e 216 156
e 216 196
e 217 57
e 217 115
e 217 195
e 218 186
e 218 215
e 218 236
e 219 135
e 219 141
e 219 300
e 220 21
e 220 27
e 220 279
e 221 79
e 221 112
e 221 185
e 222 176
e 222 221
e 222 321
e 223 160
e 223 199
e 223 297
e 224 53
e 224 253
e 224 337
e 225 38
e 225 148
e 225 160
e 226 53
e 226 161
e 226 200
e 227 51
e 227 109
e 227 239
e 228 146
e 228 195
e 228 262
e 229 24
e 229 127
e 229 312
e 230 38
e 230 45
e 230 97
e 231 14
e 231 73
e 231 209
e 232 147
e 232 165
e 232 208
e 233 19
e 233 129
e 233 280
e 234 83
e 234 117
e 234 136
e 235 37
e 235 319
e 235 341
e 236 143
e 236 156
e 236 275
e 237 17
e 237 60
e 237 203
e 238 91
e 238 104
e 238 139
e 239 57
e 239 80
e 239 274
e 240 293
e 240 311
e 240 343
e 241 35
e 241 69
e 241 350
e 242 94
e 242 252
e 242 272
e 243 14
e 243 16
e 243 111
e 244 106
e 244 271
e 244 339
e 245 23
e 245 62
e 245 185
e 246 75
e 246 239
e 246 320
e 247 43
e 247 95
e 247 284
e 248 155
e 248 194
e 248 223
e 249 50
e 249 62
e 249 237
e 250 32
e 250 230
e 250 252
e 251 162
e 251 218
e 251 257
e 252 34
e 252 277
e 252 282
e 253 9
e 253 100
e 253 166
e 254 7
e 254 242
e 254 245
e 255 101
e 255 321
e 255 350
e 256 177
e 256 310
e 256 319
e 257 244
e 257 256
e 257 270
e 258 143
e 258 187
e 258 221
e 259 21
e 259 198
e 259 290
e 260 237
e 260 285
e 260 314
e 261 164
e 261 190
e 261 220
e 262 111
e 262 261
e 262 314
e 263 55
e 263 58
e 263 78
e 264 11
e 264 49
e 264 295
e 265 278
e 265 291
e 265 315
e 266 20
e 266 144
e 266 262
e 267 125
e 267 168
e 267 175
e 268 146
e 268 296
e 268 358
e 269 48
e 269 175
e 269 334
e 270 8
e 270 30
e 270 253
e 271 36
e 271 206
e 271 216
e 272 120
e 272 163
e 272 317
e 273 49
e 273 116
e 273 321
e 274 8
e 274 182
e 274 306
e 275 102
e 275 114
e 275 247
e 276 106
e 276 226
e 276 321
e 277 221
e 277 265
e 277 269
e 278 215
e 278 256
e 278 292
e 279 72
e 279 147
e 279 340
e 280 78
e 280 225
e 280 240
e 281 130
e 281 257
e 281 359
e 282 97
e 282 286
e 282 303
e 283 38
e 283 181
e 283 265
e 284 85
e 284 88
e 284 323
e 285 117
e 285 210
e 285 311
e 286 93
e 286 306
e 286 346
e 287 16
e 287 49
e 287 323
e 288 20
e 288 96
e 288 310
e 289 197
e 289 214
e 289 330
e 290 216
e 290 303
e 290 317
e 291 49
e 291 149
e 291 299
e 292 20
e 292 75
e 292 193
e 293 40
e 293 124
e 293 242
e 294 28
e 294 206
e 294 289
e 295 26
e 295 103
e 295 352
e 296 232
e 296 309
e 296 337
e 297 24
e 297 42
e 297 306
e 298 61
e 298 174
e 298 204
e 299 82
e 299 134
e 299 324
e 300 17
e 300 32
e 300 257
e 301 74
e 301 109
e 301 250
e 302 18
e 302 84
e 302 249
e 303 30
e 303 56
e 303 268
e 304 189
e 304 265
e 304 359
e 305 91
e 305 93
e 305 105
e 306 86
e 306 275
e 306 318
e 307 5
e 307 150
e 307 242
e 308 345
e 308 349
e 308 355
e 309 222
e 309 274
e 309 278
e 310 65
e 310 248
e 310 254
e 311 231
e 311 303
e 311 347
e 312 118
e 312 198
e 312 351
e 313 37
e 313 48
e 313 174
e 314 73
e 314 129
e 314 130
e 315 146
e 315 170
e 315 276
e 316 32
e 316 277
e 316 291
e 317 152
e 317 255
e 317 265
e 318 15
e 318 156
e 318 266
e 319 31
e 319 59
e 319 279
e 320 26
e 320 35
e 320 70
e 321 12
e 321 111
e 321 192
e 322 102
e 322 125
e 322 309
e 323 132
e 323 175
e 323 298
e 324 35
e 324 45
e 324 119
e 325 87
e 325 244
e 325 331
e 326 55
e 326 165
e 326 261
e 327 114
e 327 155
e 327 310
e 328 33
e 328 41
e 328 330
e 329 54
e 329 99
e 329 191
e 330 161
e 330 202
e 330 232
e 331 7
e 331 64
e 331 116
e 332 2
e 332 163
e 332 242
e 333 49
e 333 135
e 333 215
e 334 37
e 334 274
e 334 325
e 335 62
e 335 199
e 335 249
e 336 60
e 336 82
e 336 180
e 337 44
e 337 75
e 337 129
e 338 66
e 338 78
e 338 176
e 339 68
e 339 296
e 339 298
e 340 24
e 340 92
e 340 288
e 341 233
e 341 256
e 341 312
e 342 65
e 342 85
e 342 156
e 343 125
e 343 283
e 343 313
e 344 98
e 344 99
e 344 345
e 345 90
e 345 130
e 345 223
e 346 210
e 346 217
e 346 245
e 347 66
e 347 191
e 347 251
e 348 92
e 348 268
e 348 280
e 349 128
e 349 299
e 349 312
e 350 9
e 350 21
e 350 65
e 351 62
e 351 138
e 351 245
e 352 8
e 352 91
e 352 337
e 353 168
e 353 245
e 353 349
e 354 152
e 354 171
e 354 182
e 355 13
e 355 116
e 355 236
e 356 77
e 356 187
e 356 273
e 357 203
e 357 232
e 357 243
e 358 123
e 358 165
e 358 264
e 359 92
e 359 143
e 359 356
e 360 90
e 360 150
e 360 343
